NAME : n40w80.004.417.tour
COMMENT : Length = 417
COMMENT : Found by LKH [Keld Helsgaun] Tue May  2 05:18:26 2017
TYPE : TOUR
DIMENSION : 41
TOUR_SECTION
1
37
16
26
21
3
11
27
31
28
25
5
40
9
4
2
34
39
20
10
38
32
29
35
15
12
23
6
13
30
24
17
22
14
8
36
33
7
19
41
18
-1
EOF
